words_hard_train/7646.qaiger
aag 12 5 0 1 7
2
4
8
12
16
24
6 3 4
10 7 9
14 9 12
18 15 16
20 11 19
22 12 17
24 21 23
i0 2 y2[1]
i1 1 x2[0]
i2 1 x2[7]
i3 2 y2[0]
i4 1 x2[1]
o0 bv[0]
c
simplified
  <=
    << 6
      1 x2
    or
      reverse
        2 y2
      >> 4
        1 x2
