words_hard_train/7646.qaiger.qdimacs
p cnf 12 22
a 8 2 4 0
e 1 3 5 6 7 9 10 11 12 0
1 -2 3 0
-1 -3 0
2 -3 0
3 4 5 0
-3 -5 0
-4 -5 0
4 -6 7 0
-4 -7 0
6 -7 0
7 -8 9 0
-7 -9 0
8 -9 0
5 9 10 0
-5 -10 0
-9 -10 0
-6 8 11 0
6 -11 0
-8 -11 0
10 11 12 0
-10 -12 0
-11 -12 0
12 0
